Solver command line: ['C:\\Program Files\\IBM\\ILOG\\CPLEX_Studio2211\\cplex\\bin\\x64_win64\\cplex.exe']


Welcome to IBM(R) ILOG(R) CPLEX(R) Interactive Optimizer 22.1.1.0
  with Simplex, Mixed Integer & Barrier Optimizers
5725-A06 5725-A29 5724-Y48 5724-Y49 5724-Y54 5724-Y55 5655-Y21
Copyright IBM Corp. 1988, 2022.  All Rights Reserved.

Type 'help' for a list of available commands.
Type 'help' followed by a command name for more
information on commands.

CPLEX> Logfile 'cplex.log' closed.
Logfile 'C:\Users\wangy\Documents\GitHub\re_optimization\result_site_specific\tmp4qbwu9qv.cplex.log' open.
CPLEX> Problem 'C:\Users\wangy\Documents\GitHub\re_optimization\result_site_specific\tmpcpb8hjlf.pyomo.lp' read.
Read time = 0.23 sec. (7.29 ticks)
CPLEX> Problem name         : C:\Users\wangy\Documents\GitHub\re_optimization\result_site_specific\tmpcpb8hjlf.pyomo.lp
Objective sense      : Minimize
Variables            :   52617  [Nneg: 27764,  Free: 8786,  Binary: 7,
                                 Other: 16060]
Objective nonzeros   :      14
Linear constraints   :   73052  [Less: 39437,  Greater: 3,  Equal: 33612]
  Nonzeros           :  181251
  RHS nonzeros       :    4092

Variables            : Min LB: 0.000000         Max UB: 1.000000       
Objective nonzeros   : Min   : 1.000000         Max   : 1.000000       
Linear constraints   :
  Nonzeros           : Min   : 0.001910640      Max   : 100000.0       
  RHS nonzeros       : Min   : 0.009000000      Max   : 1000.000       
CPLEX> Version identifier: 22.1.1.0 | 2022-11-27 | 9160aff4d
Tried aggregator 3 times.
MIP Presolve eliminated 47646 rows and 28667 columns.
Aggregator did 7340 substitutions.
Reduced MIP has 18066 rows, 16610 columns, and 52392 nonzeros.
Reduced MIP has 5 binaries, 0 generals, 0 SOSs, and 0 indicators.
Presolve time = 0.14 sec. (152.46 ticks)
Found incumbent of value 212961.204192 after 0.16 sec. (177.84 ticks)
Probing time = 0.02 sec. (1.10 ticks)
Tried aggregator 1 time.
Detecting symmetries...
Reduced MIP has 18066 rows, 16610 columns, and 52392 nonzeros.
Reduced MIP has 5 binaries, 0 generals, 0 SOSs, and 0 indicators.
Presolve time = 0.03 sec. (31.03 ticks)
Probing time = 0.00 sec. (0.98 ticks)
MIP emphasis: balance optimality and feasibility.
MIP search method: dynamic search.
Parallel mode: deterministic, using up to 16 threads.
Root relaxation solution time = 0.59 sec. (454.05 ticks)

        Nodes                                         Cuts/
   Node  Left     Objective  IInf  Best Integer    Best Bound    ItCnt     Gap

*     0+    0                       212961.2042    -9004.7566           104.23%
*     0+    0                        11635.0306    -9004.7566           177.39%
      0     0    10787.8186     1    11635.0306    10787.8186       45    7.28%
*     0+    0                        11634.9180    10787.8186             7.28%
      0     0        cutoff          11634.9180                    446    0.00%
Elapsed time = 0.97 sec. (869.95 ticks, tree = 0.01 MB, solutions = 3)

Root node processing (before b&c):
  Real time             =    0.99 sec. (872.45 ticks)
Parallel b&c, 16 threads:
  Real time             =    0.00 sec. (0.00 ticks)
  Sync time (average)   =    0.00 sec.
  Wait time (average)   =    0.00 sec.
                          ------------
Total (root+branch&cut) =    0.99 sec. (872.45 ticks)

Solution pool: 3 solutions saved.

MIP - Integer optimal solution:  Objective =  1.1634917955e+04
Solution time =    0.99 sec.  Iterations = 446  Nodes = 0
Deterministic time = 872.60 ticks  (885.89 ticks/sec)

CPLEX> Incumbent solution written to file 'C:\Users\wangy\Documents\GitHub\re_optimization\result_site_specific\tmphuoq1thd.cplex.sol'.
CPLEX> 
